sat
(and (INV!slice!1 #x0000000000000000
                  #x0000000000000001
                  #x0000000000000001
                  #x0000000000000001
                  #x0000000000000001
                  #b0
                  #b0
                  #x7
                  #x0
                  #x0000000000000001
                  #x0000000000000001
                  #b1
                  #x0000000000000001
                  #b1
                  #x0000000000000000
                  #b0
                  #b0
                  #x0000000000000000
                  #x0000000000000000
                  #b0
                  #b0
                  #b0)
     (INV!slice!1 #x0000000000000001
                  #x0000000000000000
                  #x0000000000000000
                  #x0000000000000000
                  #x0000000000000000
                  #b1
                  #b0
                  #x7
                  #x1
                  #x0000000000000000
                  #x0000000000000000
                  #b1
                  #x0000000000000000
                  #b0
                  #x0000000000000000
                  #b0
                  #b0
                  #x0000000000000000
                  #x0000000000000000
                  #b1
                  #b0
                  #b0)
     (INV!slice!1 #x0000000000000001
                  #x0000000000000000
                  #x0000000000000000
                  #x0000000000000000
                  #x0000000000000000
                  #b1
                  #b0
                  #x7
                  #x2
                  #x0000000000000000
                  #x0000000000000000
                  #b1
                  #x0000000000000000
                  #b0
                  #x0000000000000000
                  #b0
                  #b0
                  #x0000000000000000
                  #x0000000000000000
                  #b1
                  #b0
                  #b0)
     (INV!slice!1 #x0000000000000001
                  #x0000000000000000
                  #x0000000000000000
                  #x0000000000000000
                  #x0000000000000000
                  #b1
                  #b0
                  #x7
                  #x3
                  #x0000000000000000
                  #x0000000000000000
                  #b1
                  #x0000000000000000
                  #b0
                  #x0000000000000000
                  #b0
                  #b0
                  #x0000000000000000
                  #x0000000000000000
                  #b1
                  #b0
                  #b0)
     (INV!slice!1 #x0000000000000001
                  #x0000000000000000
                  #x0000000000000000
                  #x0000000000000000
                  #x0000000000000000
                  #b1
                  #b0
                  #x7
                  #x4
                  #x0000000000000000
                  #x0000000000000000
                  #b1
                  #x0000000000000000
                  #b0
                  #x0000000000000000
                  #b0
                  #b0
                  #x0000000000000000
                  #x0000000000000000
                  #b1
                  #b0
                  #b0)
     (INV!slice!1 #x0000000000000001
                  #x0000000000000000
                  #x0000000000000000
                  #x0000000000000000
                  #x0000000000000000
                  #b1
                  #b0
                  #x7
                  #x5
                  #x0000000000000000
                  #x0000000000000000
                  #b1
                  #x0000000000000000
                  #b0
                  #x0000000000000000
                  #b0
                  #b0
                  #x0000000000000000
                  #x0000000000000000
                  #b1
                  #b0
                  #b0)
     (INV!slice!1 #x0000000000000001
                  #x0000000000000000
                  #x0000000000000000
                  #x0000000000000000
                  #x0000000000000000
                  #b1
                  #b0
                  #x7
                  #x6
                  #x0000000000000000
                  #x0000000000000000
                  #b1
                  #x0000000000000000
                  #b0
                  #x0000000000000000
                  #b0
                  #b0
                  #x0000000000000000
                  #x0000000000000000
                  #b1
                  #b0
                  #b0)
     (INV!slice!1 #x0000000000000001
                  #x0000000000000002
                  #x0000000000000002
                  #x0000000000000002
                  #x0000000000000002
                  #b1
                  #b0
                  #x7
                  #x7
                  #x0000000000000000
                  #x0000000000000002
                  #b1
                  #x0000000000000000
                  #b0
                  #x0000000000000000
                  #b0
                  #b1
                  #x0000000000000000
                  #x0000000000000000
                  #b1
                  #b0
                  #b0)
     (INV!slice!1 #x0000000000000000
                  #x0000000000000000
                  #x0000000000000001
                  #x0000000000000002
                  #x0000000000000000
                  #b1
                  #b0
                  #x8
                  #x8
                  #x0000000000000000
                  #x0000000000000001
                  #b0
                  #x0000000000000000
                  #b0
                  #x0000000000000000
                  #b0
                  #b0
                  #x0000000000000000
                  #x0000000000000001
                  #b1
                  #b0
                  #b0)
     (INV!slice!1 #x0000000000000000
                  #x0000000000000000
                  #x0000008000000000
                  #x0000004000000000
                  #x0000000000000000
                  #b1
                  #b0
                  #x7
                  #x7
                  #x0000000000000000
                  #x0000000000000001
                  #b0
                  #x0000000000000000
                  #b0
                  #x0000000000000000
                  #b0
                  #b1
                  #x0000000000000000
                  #x0000000000000001
                  #b1
                  #b0
                  #b0)
     (INV!slice!1 #x0000000000000000
                  #x0000000000000001
                  #x0000000000000000
                  #x0000000000000000
                  #x0000000000000000
                  #b1
                  #b0
                  #x6
                  #x6
                  #x0000000000000000
                  #x0000000000000000
                  #b0
                  #x0000000000000000
                  #b0
                  #x0000000000000000
                  #b0
                  #b1
                  #x0000000000000000
                  #x0000000000000000
                  #b0
                  #b0
                  #b0)
     (INV!slice!1 #x0000000000000000
                  #x0000000000000000
                  #x0000000000000001
                  #x0000000000000002
                  #x0000000000000000
                  #b1
                  #b0
                  #x5
                  #x5
                  #x0000000000000000
                  #x0000000000000000
                  #b0
                  #x0000000000000000
                  #b0
                  #x0000000000000000
                  #b0
                  #b1
                  #x0000000000000000
                  #x0000000000000001
                  #b1
                  #b0
                  #b0)
     (INV!slice!1 #x0000000000000000
                  #x0000000000000000
                  #x0000000000000000
                  #x0000000000000001
                  #x0000000000000000
                  #b1
                  #b0
                  #x4
                  #x4
                  #x0000000000000000
                  #x0000000000000000
                  #b0
                  #x0000000000000000
                  #b0
                  #x0000000000000000
                  #b0
                  #b1
                  #x0000000000000000
                  #x0000000000000000
                  #b0
                  #b0
                  #b0)
     (INV!slice!1 #x0000000000000000
                  #x0000000000000000
                  #x0000000000000000
                  #x0000000000000000
                  #x0000000000000000
                  #b1
                  #b0
                  #x3
                  #x3
                  #x0000000000000000
                  #x0000000000000000
                  #b0
                  #x0000000000000000
                  #b0
                  #x0000000000000000
                  #b0
                  #b1
                  #x0000000000000000
                  #x0000000000000000
                  #b0
                  #b0
                  #b0)
     (INV!slice!1 #x0000000000000000
                  #x0000000000000000
                  #x0000000000000000
                  #x0000000000000000
                  #x0000000000000000
                  #b1
                  #b0
                  #x2
                  #x2
                  #x0000000000000000
                  #x0000000000000000
                  #b0
                  #x0000000000000000
                  #b0
                  #x0000000000000000
                  #b0
                  #b1
                  #x0000000000000000
                  #x0000000000000000
                  #b0
                  #b0
                  #b0)
     (INV!slice!1 #x0000000000000000
                  #x0000000000000000
                  #x0000000000000000
                  #x0000000000000000
                  #x0000000000000000
                  #b1
                  #b0
                  #x1
                  #x1
                  #x0000000000000000
                  #x0000000000000000
                  #b0
                  #x0000000000000000
                  #b0
                  #x0000000000000000
                  #b0
                  #b1
                  #x0000000000000000
                  #x0000000000000000
                  #b0
                  #b0
                  #b0)
     (INV!slice!1 #x0000000000000000
                  #x0000000000000000
                  #x0000000000000000
                  #x0000000000000000
                  #x0000000000000000
                  #b1
                  #b0
                  #x0
                  #x0
                  #x0000000000000000
                  #x0000000000000000
                  #b0
                  #x0000000000000000
                  #b0
                  #x0000000000000000
                  #b0
                  #b1
                  #x0000000000000000
                  #x0000000000000000
                  #b0
                  #b0
                  #b0)
     (INV!slice!1 #x0000000000000000
                  #x0000000000000000
                  #x0000000000000000
                  #x0000000000000000
                  #x0000000000000000
                  #b1
                  #b1
                  #x1
                  #x0
                  #x0000000000000000
                  #x0000000000000000
                  #b0
                  #x0000000000000000
                  #b0
                  #x0000000000000000
                  #b0
                  #b0
                  #x0000000000000000
                  #x0000000000000000
                  #b0
                  #b0
                  #b1))
